\ENCODING=ISO-8859-1
\Problem name: lp

Maximize
 obj: 3060 x1 + 4400 x2 + 2730 x3 + 5000 x4 + 2400 x5 + 3740 x6 + 1600 x7
      + 1600 x8 + 3400 x9 + 4080 x10 + 900 x11 + 4420 x12 + 1360 x13 + 700 x14
      + 2890 x15 + 8000 x16 + 3900 x17 + 2080 x18 + 2080 x19 + 5000 x20
      + 900 x21 + 1700 x22 + 2990 x23 + 2550 x24 + 3740 x25 + 3740 x26
      + 2340 x27 + 2550 x28 + 400 x29 + 1700 x30 + 900 x31 + 2730 x32 + 500 x33
      + 1700 x34 + 2890 x35 + 1200 x36 + 3380 x37 + 2080 x38 + 300 x39
      + 400 x40 + 650 x41 + 400 x42 + 300 x43 + 100 x44 + 2754 x45 + 3960 x46
      + 2457 x47 + 4500 x48 + 2160 x49 + 3366 x50 + 1440 x51 + 1440 x52
      + 3060 x53 + 3672 x54 + 810 x55 + 3978 x56 + 1224 x57 + 630 x58
      + 2601 x59 + 7200 x60 + 3510 x61 + 1872 x62 + 1872 x63 + 4500 x64
      + 810 x65 + 1530 x66 + 2691 x67 + 2295 x68 + 3366 x69 + 3366 x70
      + 2106 x71 + 2295 x72 + 360 x73 + 1530 x74 + 810 x75 + 2457 x76 + 450 x77
      + 1530 x78 + 2601 x79 + 1080 x80 + 3042 x81 + 1872 x82 + 270 x83
      + 360 x84 + 585 x85 + 360 x86 + 270 x87 + 90 x88 + 2448 x89 + 3520 x90
      + 2184 x91 + 4000 x92 + 1920 x93 + 2992 x94 + 1280 x95 + 1280 x96
      + 2720 x97 + 3264 x98 + 720 x99 + 3536 x100 + 1088 x101 + 560 x102
      + 2312 x103 + 6400 x104 + 3120 x105 + 1664 x106 + 1664 x107 + 4000 x108
      + 720 x109 + 1360 x110 + 2392 x111 + 2040 x112 + 2992 x113 + 2992 x114
      + 1872 x115 + 2040 x116 + 320 x117 + 1360 x118 + 720 x119 + 2184 x120
      + 400 x121 + 1360 x122 + 2312 x123 + 960 x124 + 2704 x125 + 1664 x126
      + 240 x127 + 320 x128 + 520 x129 + 320 x130 + 240 x131 + 80 x132
      + 2142 x133 + 3080 x134 + 1911 x135 + 3500 x136 + 1680 x137 + 2618 x138
      + 1120 x139 + 1120 x140 + 2380 x141 + 2856 x142 + 630 x143 + 3094 x144
      + 952 x145 + 490 x146 + 2023 x147 + 5600 x148 + 2730 x149 + 1456 x150
      + 1456 x151 + 3500 x152 + 630 x153 + 1190 x154 + 2093 x155 + 1785 x156
      + 2618 x157 + 2618 x158 + 1638 x159 + 1785 x160 + 280 x161 + 1190 x162
      + 630 x163 + 1911 x164 + 350 x165 + 1190 x166 + 2023 x167 + 840 x168
      + 2366 x169 + 1456 x170 + 210 x171 + 280 x172 + 455 x173 + 280 x174
      + 210 x175 + 70 x176 + 1836 x177 + 2640 x178 + 1638 x179 + 3000 x180
      + 1440 x181 + 2244 x182 + 960 x183 + 960 x184 + 2040 x185 + 2448 x186
      + 540 x187 + 2652 x188 + 816 x189 + 420 x190 + 1734 x191 + 4800 x192
      + 2340 x193 + 1248 x194 + 1248 x195 + 3000 x196 + 540 x197 + 1020 x198
      + 1794 x199 + 1530 x200 + 2244 x201 + 2244 x202 + 1404 x203 + 1530 x204
      + 240 x205 + 1020 x206 + 540 x207 + 1638 x208 + 300 x209 + 1020 x210
      + 1734 x211 + 720 x212 + 2028 x213 + 1248 x214 + 180 x215 + 240 x216
      + 390 x217 + 240 x218 + 180 x219 + 60 x220 + 1530 x221 + 2200 x222
      + 1365 x223 + 2500 x224 + 1200 x225 + 1870 x226 + 800 x227 + 800 x228
      + 1700 x229 + 2040 x230 + 450 x231 + 2210 x232 + 680 x233 + 350 x234
      + 1445 x235 + 4000 x236 + 1950 x237 + 1040 x238 + 1040 x239 + 2500 x240
      + 450 x241 + 850 x242 + 1495 x243 + 1275 x244 + 1870 x245 + 1870 x246
      + 1170 x247 + 1275 x248 + 200 x249 + 850 x250 + 450 x251 + 1365 x252
      + 250 x253 + 850 x254 + 1445 x255 + 600 x256 + 1690 x257 + 1040 x258
      + 150 x259 + 200 x260 + 325 x261 + 200 x262 + 150 x263 + 50 x264
      + 1224 x265 + 1760 x266 + 1092 x267 + 2000 x268 + 960 x269 + 1496 x270
      + 640 x271 + 640 x272 + 1360 x273 + 1632 x274 + 360 x275 + 1768 x276
      + 544 x277 + 280 x278 + 1156 x279 + 3200 x280 + 1560 x281 + 832 x282
      + 832 x283 + 2000 x284 + 360 x285 + 680 x286 + 1196 x287 + 1020 x288
      + 1496 x289 + 1496 x290 + 936 x291 + 1020 x292 + 160 x293 + 680 x294
      + 360 x295 + 1092 x296 + 200 x297 + 680 x298 + 1156 x299 + 480 x300
      + 1352 x301 + 832 x302 + 120 x303 + 160 x304 + 260 x305 + 160 x306
      + 120 x307 + 40 x308 + 918 x309 + 1320 x310 + 819 x311 + 1500 x312
      + 720 x313 + 1122 x314 + 480 x315 + 480 x316 + 1020 x317 + 1224 x318
      + 270 x319 + 1326 x320 + 408 x321 + 210 x322 + 867 x323 + 2400 x324
      + 1170 x325 + 624 x326 + 624 x327 + 1500 x328 + 270 x329 + 510 x330
      + 897 x331 + 765 x332 + 1122 x333 + 1122 x334 + 702 x335 + 765 x336
      + 120 x337 + 510 x338 + 270 x339 + 819 x340 + 150 x341 + 510 x342
      + 867 x343 + 360 x344 + 1014 x345 + 624 x346 + 90 x347 + 120 x348
      + 195 x349 + 120 x350 + 90 x351 + 30 x352 + 612 x353 + 880 x354
      + 546 x355 + 1000 x356 + 480 x357 + 748 x358 + 320 x359 + 320 x360
      + 680 x361 + 816 x362 + 180 x363 + 884 x364 + 272 x365 + 140 x366
      + 578 x367 + 1600 x368 + 780 x369 + 416 x370 + 416 x371 + 1000 x372
      + 180 x373 + 340 x374 + 598 x375 + 510 x376 + 748 x377 + 748 x378
      + 468 x379 + 510 x380 + 80 x381 + 340 x382 + 180 x383 + 546 x384
      + 100 x385 + 340 x386 + 578 x387 + 240 x388 + 676 x389 + 416 x390
      + 60 x391 + 80 x392 + 130 x393 + 80 x394 + 60 x395 + 20 x396 + 306 x397
      + 440 x398 + 273 x399 + 500 x400 + 240 x401 + 374 x402 + 160 x403
      + 160 x404 + 340 x405 + 408 x406 + 90 x407 + 442 x408 + 136 x409
      + 70 x410 + 289 x411 + 800 x412 + 390 x413 + 208 x414 + 208 x415
      + 500 x416 + 90 x417 + 170 x418 + 299 x419 + 255 x420 + 374 x421
      + 374 x422 + 234 x423 + 255 x424 + 40 x425 + 170 x426 + 90 x427
      + 273 x428 + 50 x429 + 170 x430 + 289 x431 + 120 x432 + 338 x433
      + 208 x434 + 30 x435 + 40 x436 + 65 x437 + 40 x438 + 30 x439 + 10 x440
      + 210 x441 + 120 x442 + 189 x443 + 108 x444 + 168 x445 + 96 x446
      + 147 x447 + 84 x448 + 126 x449 + 72 x450 + 105 x451 + 60 x452 + 84 x453
      + 48 x454 + 63 x455 + 36 x456 + 42 x457 + 24 x458 + 21 x459 + 12 x460
Subject To
 c1:  1.7 x1 + 4 x2 + 2.6 x3 + 6 x4 + 3 x5 + 6.8 x6 + 3 x7 + 3 x8 + 6.8 x9
      + 8.5 x10 + 2 x11 + 10.2 x12 + 3.4 x13 + 2 x14 + 8.5 x15 + 24 x16
      + 11.7 x17 + 6.5 x18 + 6.5 x19 + 16 x20 + 3 x21 + 6 x22 + 11.7 x23
      + 10.2 x24 + 15.3 x25 + 15.3 x26 + 10 x27 + 11.9 x28 + 2 x29 + 9 x30
      + 5 x31 + 15.6 x32 + 3 x33 + 10.4 x34 + 20.4 x35 + 9 x36 + 28.6 x37
      + 19.5 x38 + 3 x39 + 5 x40 + 9.1 x41 + 7 x42 + 8 x43 + 3 x44 <= 29.16
 c2:  1.7 x45 + 4 x46 + 2.6 x47 + 6 x48 + 3 x49 + 6.8 x50 + 3 x51 + 3 x52
      + 6.8 x53 + 8.5 x54 + 2 x55 + 10.2 x56 + 3.4 x57 + 2 x58 + 8.5 x59
      + 24 x60 + 11.7 x61 + 6.5 x62 + 6.5 x63 + 16 x64 + 3 x65 + 6 x66
      + 11.7 x67 + 10.2 x68 + 15.3 x69 + 15.3 x70 + 10 x71 + 11.9 x72 + 2 x73
      + 9 x74 + 5 x75 + 15.6 x76 + 3 x77 + 10.4 x78 + 20.4 x79 + 9 x80
      + 28.6 x81 + 19.5 x82 + 3 x83 + 5 x84 + 9.1 x85 + 7 x86 + 8 x87 + 3 x88
      <= 46.17
 c3:  1.7 x89 + 4 x90 + 2.6 x91 + 6 x92 + 3 x93 + 6.8 x94 + 3 x95 + 3 x96
      + 6.8 x97 + 8.5 x98 + 2 x99 + 10.2 x100 + 3.4 x101 + 2 x102 + 8.5 x103
      + 24 x104 + 11.7 x105 + 6.5 x106 + 6.5 x107 + 16 x108 + 3 x109 + 6 x110
      + 11.7 x111 + 10.2 x112 + 15.3 x113 + 15.3 x114 + 10 x115 + 11.9 x116
      + 2 x117 + 9 x118 + 5 x119 + 15.6 x120 + 3 x121 + 10.4 x122 + 20.4 x123
      + 9 x124 + 28.6 x125 + 19.5 x126 + 3 x127 + 5 x128 + 9.1 x129 + 7 x130
      + 8 x131 + 3 x132 <= 51.03
 c4:  1.7 x133 + 4 x134 + 2.6 x135 + 6 x136 + 3 x137 + 6.8 x138 + 3 x139
      + 3 x140 + 6.8 x141 + 8.5 x142 + 2 x143 + 10.2 x144 + 3.4 x145 + 2 x146
      + 8.5 x147 + 24 x148 + 11.7 x149 + 6.5 x150 + 6.5 x151 + 16 x152 + 3 x153
      + 6 x154 + 11.7 x155 + 10.2 x156 + 15.3 x157 + 15.3 x158 + 10 x159
      + 11.9 x160 + 2 x161 + 9 x162 + 5 x163 + 15.6 x164 + 3 x165 + 10.4 x166
      + 20.4 x167 + 9 x168 + 28.6 x169 + 19.5 x170 + 3 x171 + 5 x172 + 9.1 x173
      + 7 x174 + 8 x175 + 3 x176 <= 65.61
 c5:  1.7 x177 + 4 x178 + 2.6 x179 + 6 x180 + 3 x181 + 6.8 x182 + 3 x183
      + 3 x184 + 6.8 x185 + 8.5 x186 + 2 x187 + 10.2 x188 + 3.4 x189 + 2 x190
      + 8.5 x191 + 24 x192 + 11.7 x193 + 6.5 x194 + 6.5 x195 + 16 x196 + 3 x197
      + 6 x198 + 11.7 x199 + 10.2 x200 + 15.3 x201 + 15.3 x202 + 10 x203
      + 11.9 x204 + 2 x205 + 9 x206 + 5 x207 + 15.6 x208 + 3 x209 + 10.4 x210
      + 20.4 x211 + 9 x212 + 28.6 x213 + 19.5 x214 + 3 x215 + 5 x216 + 9.1 x217
      + 7 x218 + 8 x219 + 3 x220 <= 36.45
 c6:  1.7 x221 + 4 x222 + 2.6 x223 + 6 x224 + 3 x225 + 6.8 x226 + 3 x227
      + 3 x228 + 6.8 x229 + 8.5 x230 + 2 x231 + 10.2 x232 + 3.4 x233 + 2 x234
      + 8.5 x235 + 24 x236 + 11.7 x237 + 6.5 x238 + 6.5 x239 + 16 x240 + 3 x241
      + 6 x242 + 11.7 x243 + 10.2 x244 + 15.3 x245 + 15.3 x246 + 10 x247
      + 11.9 x248 + 2 x249 + 9 x250 + 5 x251 + 15.6 x252 + 3 x253 + 10.4 x254
      + 20.4 x255 + 9 x256 + 28.6 x257 + 19.5 x258 + 3 x259 + 5 x260 + 9.1 x261
      + 7 x262 + 8 x263 + 3 x264 <= 36.45
 c7:  1.7 x265 + 4 x266 + 2.6 x267 + 6 x268 + 3 x269 + 6.8 x270 + 3 x271
      + 3 x272 + 6.8 x273 + 8.5 x274 + 2 x275 + 10.2 x276 + 3.4 x277 + 2 x278
      + 8.5 x279 + 24 x280 + 11.7 x281 + 6.5 x282 + 6.5 x283 + 16 x284 + 3 x285
      + 6 x286 + 11.7 x287 + 10.2 x288 + 15.3 x289 + 15.3 x290 + 10 x291
      + 11.9 x292 + 2 x293 + 9 x294 + 5 x295 + 15.6 x296 + 3 x297 + 10.4 x298
      + 20.4 x299 + 9 x300 + 28.6 x301 + 19.5 x302 + 3 x303 + 5 x304 + 9.1 x305
      + 7 x306 + 8 x307 + 3 x308 <= 36.45
 c8:  1.7 x309 + 4 x310 + 2.6 x311 + 6 x312 + 3 x313 + 6.8 x314 + 3 x315
      + 3 x316 + 6.8 x317 + 8.5 x318 + 2 x319 + 10.2 x320 + 3.4 x321 + 2 x322
      + 8.5 x323 + 24 x324 + 11.7 x325 + 6.5 x326 + 6.5 x327 + 16 x328 + 3 x329
      + 6 x330 + 11.7 x331 + 10.2 x332 + 15.3 x333 + 15.3 x334 + 10 x335
      + 11.9 x336 + 2 x337 + 9 x338 + 5 x339 + 15.6 x340 + 3 x341 + 10.4 x342
      + 20.4 x343 + 9 x344 + 28.6 x345 + 19.5 x346 + 3 x347 + 5 x348 + 9.1 x349
      + 7 x350 + 8 x351 + 3 x352 <= 36.45
 c9:  1.7 x353 + 4 x354 + 2.6 x355 + 6 x356 + 3 x357 + 6.8 x358 + 3 x359
      + 3 x360 + 6.8 x361 + 8.5 x362 + 2 x363 + 10.2 x364 + 3.4 x365 + 2 x366
      + 8.5 x367 + 24 x368 + 11.7 x369 + 6.5 x370 + 6.5 x371 + 16 x372 + 3 x373
      + 6 x374 + 11.7 x375 + 10.2 x376 + 15.3 x377 + 15.3 x378 + 10 x379
      + 11.9 x380 + 2 x381 + 9 x382 + 5 x383 + 15.6 x384 + 3 x385 + 10.4 x386
      + 20.4 x387 + 9 x388 + 28.6 x389 + 19.5 x390 + 3 x391 + 5 x392 + 9.1 x393
      + 7 x394 + 8 x395 + 3 x396 <= 36.45
 c10: 1.7 x397 + 4 x398 + 2.6 x399 + 6 x400 + 3 x401 + 6.8 x402 + 3 x403
      + 3 x404 + 6.8 x405 + 8.5 x406 + 2 x407 + 10.2 x408 + 3.4 x409 + 2 x410
      + 8.5 x411 + 24 x412 + 11.7 x413 + 6.5 x414 + 6.5 x415 + 16 x416 + 3 x417
      + 6 x418 + 11.7 x419 + 10.2 x420 + 15.3 x421 + 15.3 x422 + 10 x423
      + 11.9 x424 + 2 x425 + 9 x426 + 5 x427 + 15.6 x428 + 3 x429 + 10.4 x430
      + 20.4 x431 + 9 x432 + 28.6 x433 + 19.5 x434 + 3 x435 + 5 x436 + 9.1 x437
      + 7 x438 + 8 x439 + 3 x440 <= 24.3
 c11: x1 + x45 + x89 + x133 + x177 + x221 + x265 + x309 + x353 + x397  = 1
 c12: x2 + x46 + x90 + x134 + x178 + x222 + x266 + x310 + x354 + x398  = 1
 c13: x3 + x47 + x91 + x135 + x179 + x223 + x267 + x311 + x355 + x399  = 1
 c14: x4 + x48 + x92 + x136 + x180 + x224 + x268 + x312 + x356 + x400  = 1
 c15: x5 + x49 + x93 + x137 + x181 + x225 + x269 + x313 + x357 + x401  = 1
 c16: x6 + x50 + x94 + x138 + x182 + x226 + x270 + x314 + x358 + x402  = 1
 c17: x7 + x51 + x95 + x139 + x183 + x227 + x271 + x315 + x359 + x403  = 1
 c18: x8 + x52 + x96 + x140 + x184 + x228 + x272 + x316 + x360 + x404  = 1
 c19: x9 + x53 + x97 + x141 + x185 + x229 + x273 + x317 + x361 + x405  = 1
 c20: x10 + x54 + x98 + x142 + x186 + x230 + x274 + x318 + x362 + x406  = 1
 c21: x11 + x55 + x99 + x143 + x187 + x231 + x275 + x319 + x363 + x407  = 1
 c22: x12 + x56 + x100 + x144 + x188 + x232 + x276 + x320 + x364 + x408  = 1
 c23: x13 + x57 + x101 + x145 + x189 + x233 + x277 + x321 + x365 + x409  = 1
 c24: x14 + x58 + x102 + x146 + x190 + x234 + x278 + x322 + x366 + x410  = 1
 c25: x15 + x59 + x103 + x147 + x191 + x235 + x279 + x323 + x367 + x411  = 1
 c26: x16 + x60 + x104 + x148 + x192 + x236 + x280 + x324 + x368 + x412  = 1
 c27: x17 + x61 + x105 + x149 + x193 + x237 + x281 + x325 + x369 + x413  = 1
 c28: x18 + x62 + x106 + x150 + x194 + x238 + x282 + x326 + x370 + x414  = 1
 c29: x19 + x63 + x107 + x151 + x195 + x239 + x283 + x327 + x371 + x415  = 1
 c30: x20 + x64 + x108 + x152 + x196 + x240 + x284 + x328 + x372 + x416  = 1
 c31: x21 + x65 + x109 + x153 + x197 + x241 + x285 + x329 + x373 + x417  = 1
 c32: x22 + x66 + x110 + x154 + x198 + x242 + x286 + x330 + x374 + x418  = 1
 c33: x23 + x67 + x111 + x155 + x199 + x243 + x287 + x331 + x375 + x419  = 1
 c34: x24 + x68 + x112 + x156 + x200 + x244 + x288 + x332 + x376 + x420  = 1
 c35: x25 + x69 + x113 + x157 + x201 + x245 + x289 + x333 + x377 + x421  = 1
 c36: x26 + x70 + x114 + x158 + x202 + x246 + x290 + x334 + x378 + x422  = 1
 c37: x27 + x71 + x115 + x159 + x203 + x247 + x291 + x335 + x379 + x423  = 1
 c38: x28 + x72 + x116 + x160 + x204 + x248 + x292 + x336 + x380 + x424  = 1
 c39: x29 + x73 + x117 + x161 + x205 + x249 + x293 + x337 + x381 + x425  = 1
 c40: x30 + x74 + x118 + x162 + x206 + x250 + x294 + x338 + x382 + x426  = 1
 c41: x31 + x75 + x119 + x163 + x207 + x251 + x295 + x339 + x383 + x427  = 1
 c42: x32 + x76 + x120 + x164 + x208 + x252 + x296 + x340 + x384 + x428  = 1
 c43: x33 + x77 + x121 + x165 + x209 + x253 + x297 + x341 + x385 + x429  = 1
 c44: x34 + x78 + x122 + x166 + x210 + x254 + x298 + x342 + x386 + x430  = 1
 c45: x35 + x79 + x123 + x167 + x211 + x255 + x299 + x343 + x387 + x431  = 1
 c46: x36 + x80 + x124 + x168 + x212 + x256 + x300 + x344 + x388 + x432  = 1
 c47: x37 + x81 + x125 + x169 + x213 + x257 + x301 + x345 + x389 + x433  = 1
 c48: x38 + x82 + x126 + x170 + x214 + x258 + x302 + x346 + x390 + x434  = 1
 c49: x39 + x83 + x127 + x171 + x215 + x259 + x303 + x347 + x391 + x435  = 1
 c50: x40 + x84 + x128 + x172 + x216 + x260 + x304 + x348 + x392 + x436  = 1
 c51: x41 + x85 + x129 + x173 + x217 + x261 + x305 + x349 + x393 + x437  = 1
 c52: x42 + x86 + x130 + x174 + x218 + x262 + x306 + x350 + x394 + x438  = 1
 c53: x43 + x87 + x131 + x175 + x219 + x263 + x307 + x351 + x395 + x439  = 1
 c54: x44 + x88 + x132 + x176 + x220 + x264 + x308 + x352 + x396 + x440  = 1
 c55: - x29 + x441 <= 0
 c56: - x14 + x442 <= 0
 c57: - x73 + x443 <= 0
 c58: - x58 + x444 <= 0
 c59: - x117 + x445 <= 0
 c60: - x102 + x446 <= 0
 c61: - x161 + x447 <= 0
 c62: - x146 + x448 <= 0
 c63: - x205 + x449 <= 0
 c64: - x190 + x450 <= 0
 c65: - x249 + x451 <= 0
 c66: - x234 + x452 <= 0
 c67: - x293 + x453 <= 0
 c68: - x278 + x454 <= 0
 c69: - x337 + x455 <= 0
 c70: - x322 + x456 <= 0
 c71: - x381 + x457 <= 0
 c72: - x366 + x458 <= 0
 c73: - x425 + x459 <= 0
 c74: - x410 + x460 <= 0
 c75: - x14 + x441 <= 0
 c76: - x29 + x442 <= 0
 c77: - x58 + x443 <= 0
 c78: - x73 + x444 <= 0
 c79: - x102 + x445 <= 0
 c80: - x117 + x446 <= 0
 c81: - x146 + x447 <= 0
 c82: - x161 + x448 <= 0
 c83: - x190 + x449 <= 0
 c84: - x205 + x450 <= 0
 c85: - x234 + x451 <= 0
 c86: - x249 + x452 <= 0
 c87: - x278 + x453 <= 0
 c88: - x293 + x454 <= 0
 c89: - x322 + x455 <= 0
 c90: - x337 + x456 <= 0
 c91: - x366 + x457 <= 0
 c92: - x381 + x458 <= 0
 c93: - x410 + x459 <= 0
 c94: - x425 + x460 <= 0
Bounds
 0 <= x1 <= 1
 0 <= x2 <= 1
 0 <= x3 <= 1
 0 <= x4 <= 1
 0 <= x5 <= 1
 0 <= x6 <= 1
 0 <= x7 <= 1
 0 <= x8 <= 1
 0 <= x9 <= 1
 0 <= x10 <= 1
 0 <= x11 <= 1
 0 <= x12 <= 1
 0 <= x13 <= 1
 0 <= x14 <= 1
 0 <= x15 <= 1
 0 <= x16 <= 1
 0 <= x17 <= 1
 0 <= x18 <= 1
 0 <= x19 <= 1
 0 <= x20 <= 1
 0 <= x21 <= 1
 0 <= x22 <= 1
 0 <= x23 <= 1
 0 <= x24 <= 1
 0 <= x25 <= 1
 0 <= x26 <= 1
 0 <= x27 <= 1
 0 <= x28 <= 1
 0 <= x29 <= 1
 0 <= x30 <= 1
 0 <= x31 <= 1
 0 <= x32 <= 1
 0 <= x33 <= 1
 0 <= x34 <= 1
 0 <= x35 <= 1
 0 <= x36 <= 1
 0 <= x37 <= 1
 0 <= x38 <= 1
 0 <= x39 <= 1
 0 <= x40 <= 1
 0 <= x41 <= 1
 0 <= x42 <= 1
 0 <= x43 <= 1
 0 <= x44 <= 1
 0 <= x45 <= 1
 0 <= x46 <= 1
 0 <= x47 <= 1
 0 <= x48 <= 1
 0 <= x49 <= 1
 0 <= x50 <= 1
 0 <= x51 <= 1
 0 <= x52 <= 1
 0 <= x53 <= 1
 0 <= x54 <= 1
 0 <= x55 <= 1
 0 <= x56 <= 1
 0 <= x57 <= 1
 0 <= x58 <= 1
 0 <= x59 <= 1
 0 <= x60 <= 1
 0 <= x61 <= 1
 0 <= x62 <= 1
 0 <= x63 <= 1
 0 <= x64 <= 1
 0 <= x65 <= 1
 0 <= x66 <= 1
 0 <= x67 <= 1
 0 <= x68 <= 1
 0 <= x69 <= 1
 0 <= x70 <= 1
 0 <= x71 <= 1
 0 <= x72 <= 1
 0 <= x73 <= 1
 0 <= x74 <= 1
 0 <= x75 <= 1
 0 <= x76 <= 1
 0 <= x77 <= 1
 0 <= x78 <= 1
 0 <= x79 <= 1
 0 <= x80 <= 1
 0 <= x81 <= 1
 0 <= x82 <= 1
 0 <= x83 <= 1
 0 <= x84 <= 1
 0 <= x85 <= 1
 0 <= x86 <= 1
 0 <= x87 <= 1
 0 <= x88 <= 1
 0 <= x89 <= 1
 0 <= x90 <= 1
 0 <= x91 <= 1
 0 <= x92 <= 1
 0 <= x93 <= 1
 0 <= x94 <= 1
 0 <= x95 <= 1
 0 <= x96 <= 1
 0 <= x97 <= 1
 0 <= x98 <= 1
 0 <= x99 <= 1
 0 <= x100 <= 1
 0 <= x101 <= 1
 0 <= x102 <= 1
 0 <= x103 <= 1
 0 <= x104 <= 1
 0 <= x105 <= 1
 0 <= x106 <= 1
 0 <= x107 <= 1
 0 <= x108 <= 1
 0 <= x109 <= 1
 0 <= x110 <= 1
 0 <= x111 <= 1
 0 <= x112 <= 1
 0 <= x113 <= 1
 0 <= x114 <= 1
 0 <= x115 <= 1
 0 <= x116 <= 1
 0 <= x117 <= 1
 0 <= x118 <= 1
 0 <= x119 <= 1
 0 <= x120 <= 1
 0 <= x121 <= 1
 0 <= x122 <= 1
 0 <= x123 <= 1
 0 <= x124 <= 1
 0 <= x125 <= 1
 0 <= x126 <= 1
 0 <= x127 <= 1
 0 <= x128 <= 1
 0 <= x129 <= 1
 0 <= x130 <= 1
 0 <= x131 <= 1
 0 <= x132 <= 1
 0 <= x133 <= 1
 0 <= x134 <= 1
 0 <= x135 <= 1
 0 <= x136 <= 1
 0 <= x137 <= 1
 0 <= x138 <= 1
 0 <= x139 <= 1
 0 <= x140 <= 1
 0 <= x141 <= 1
 0 <= x142 <= 1
 0 <= x143 <= 1
 0 <= x144 <= 1
 0 <= x145 <= 1
 0 <= x146 <= 1
 0 <= x147 <= 1
 0 <= x148 <= 1
 0 <= x149 <= 1
 0 <= x150 <= 1
 0 <= x151 <= 1
 0 <= x152 <= 1
 0 <= x153 <= 1
 0 <= x154 <= 1
 0 <= x155 <= 1
 0 <= x156 <= 1
 0 <= x157 <= 1
 0 <= x158 <= 1
 0 <= x159 <= 1
 0 <= x160 <= 1
 0 <= x161 <= 1
 0 <= x162 <= 1
 0 <= x163 <= 1
 0 <= x164 <= 1
 0 <= x165 <= 1
 0 <= x166 <= 1
 0 <= x167 <= 1
 0 <= x168 <= 1
 0 <= x169 <= 1
 0 <= x170 <= 1
 0 <= x171 <= 1
 0 <= x172 <= 1
 0 <= x173 <= 1
 0 <= x174 <= 1
 0 <= x175 <= 1
 0 <= x176 <= 1
 0 <= x177 <= 1
 0 <= x178 <= 1
 0 <= x179 <= 1
 0 <= x180 <= 1
 0 <= x181 <= 1
 0 <= x182 <= 1
 0 <= x183 <= 1
 0 <= x184 <= 1
 0 <= x185 <= 1
 0 <= x186 <= 1
 0 <= x187 <= 1
 0 <= x188 <= 1
 0 <= x189 <= 1
 0 <= x190 <= 1
 0 <= x191 <= 1
 0 <= x192 <= 1
 0 <= x193 <= 1
 0 <= x194 <= 1
 0 <= x195 <= 1
 0 <= x196 <= 1
 0 <= x197 <= 1
 0 <= x198 <= 1
 0 <= x199 <= 1
 0 <= x200 <= 1
 0 <= x201 <= 1
 0 <= x202 <= 1
 0 <= x203 <= 1
 0 <= x204 <= 1
 0 <= x205 <= 1
 0 <= x206 <= 1
 0 <= x207 <= 1
 0 <= x208 <= 1
 0 <= x209 <= 1
 0 <= x210 <= 1
 0 <= x211 <= 1
 0 <= x212 <= 1
 0 <= x213 <= 1
 0 <= x214 <= 1
 0 <= x215 <= 1
 0 <= x216 <= 1
 0 <= x217 <= 1
 0 <= x218 <= 1
 0 <= x219 <= 1
 0 <= x220 <= 1
 0 <= x221 <= 1
 0 <= x222 <= 1
 0 <= x223 <= 1
 0 <= x224 <= 1
 0 <= x225 <= 1
 0 <= x226 <= 1
 0 <= x227 <= 1
 0 <= x228 <= 1
 0 <= x229 <= 1
 0 <= x230 <= 1
 0 <= x231 <= 1
 0 <= x232 <= 1
 0 <= x233 <= 1
 0 <= x234 <= 1
 0 <= x235 <= 1
 0 <= x236 <= 1
 0 <= x237 <= 1
 0 <= x238 <= 1
 0 <= x239 <= 1
 0 <= x240 <= 1
 0 <= x241 <= 1
 0 <= x242 <= 1
 0 <= x243 <= 1
 0 <= x244 <= 1
 0 <= x245 <= 1
 0 <= x246 <= 1
 0 <= x247 <= 1
 0 <= x248 <= 1
 0 <= x249 <= 1
 0 <= x250 <= 1
 0 <= x251 <= 1
 0 <= x252 <= 1
 0 <= x253 <= 1
 0 <= x254 <= 1
 0 <= x255 <= 1
 0 <= x256 <= 1
 0 <= x257 <= 1
 0 <= x258 <= 1
 0 <= x259 <= 1
 0 <= x260 <= 1
 0 <= x261 <= 1
 0 <= x262 <= 1
 0 <= x263 <= 1
 0 <= x264 <= 1
 0 <= x265 <= 1
 0 <= x266 <= 1
 0 <= x267 <= 1
 0 <= x268 <= 1
 0 <= x269 <= 1
 0 <= x270 <= 1
 0 <= x271 <= 1
 0 <= x272 <= 1
 0 <= x273 <= 1
 0 <= x274 <= 1
 0 <= x275 <= 1
 0 <= x276 <= 1
 0 <= x277 <= 1
 0 <= x278 <= 1
 0 <= x279 <= 1
 0 <= x280 <= 1
 0 <= x281 <= 1
 0 <= x282 <= 1
 0 <= x283 <= 1
 0 <= x284 <= 1
 0 <= x285 <= 1
 0 <= x286 <= 1
 0 <= x287 <= 1
 0 <= x288 <= 1
 0 <= x289 <= 1
 0 <= x290 <= 1
 0 <= x291 <= 1
 0 <= x292 <= 1
 0 <= x293 <= 1
 0 <= x294 <= 1
 0 <= x295 <= 1
 0 <= x296 <= 1
 0 <= x297 <= 1
 0 <= x298 <= 1
 0 <= x299 <= 1
 0 <= x300 <= 1
 0 <= x301 <= 1
 0 <= x302 <= 1
 0 <= x303 <= 1
 0 <= x304 <= 1
 0 <= x305 <= 1
 0 <= x306 <= 1
 0 <= x307 <= 1
 0 <= x308 <= 1
 0 <= x309 <= 1
 0 <= x310 <= 1
 0 <= x311 <= 1
 0 <= x312 <= 1
 0 <= x313 <= 1
 0 <= x314 <= 1
 0 <= x315 <= 1
 0 <= x316 <= 1
 0 <= x317 <= 1
 0 <= x318 <= 1
 0 <= x319 <= 1
 0 <= x320 <= 1
 0 <= x321 <= 1
 0 <= x322 <= 1
 0 <= x323 <= 1
 0 <= x324 <= 1
 0 <= x325 <= 1
 0 <= x326 <= 1
 0 <= x327 <= 1
 0 <= x328 <= 1
 0 <= x329 <= 1
 0 <= x330 <= 1
 0 <= x331 <= 1
 0 <= x332 <= 1
 0 <= x333 <= 1
 0 <= x334 <= 1
 0 <= x335 <= 1
 0 <= x336 <= 1
 0 <= x337 <= 1
 0 <= x338 <= 1
 0 <= x339 <= 1
 0 <= x340 <= 1
 0 <= x341 <= 1
 0 <= x342 <= 1
 0 <= x343 <= 1
 0 <= x344 <= 1
 0 <= x345 <= 1
 0 <= x346 <= 1
 0 <= x347 <= 1
 0 <= x348 <= 1
 0 <= x349 <= 1
 0 <= x350 <= 1
 0 <= x351 <= 1
 0 <= x352 <= 1
 0 <= x353 <= 1
 0 <= x354 <= 1
 0 <= x355 <= 1
 0 <= x356 <= 1
 0 <= x357 <= 1
 0 <= x358 <= 1
 0 <= x359 <= 1
 0 <= x360 <= 1
 0 <= x361 <= 1
 0 <= x362 <= 1
 0 <= x363 <= 1
 0 <= x364 <= 1
 0 <= x365 <= 1
 0 <= x366 <= 1
 0 <= x367 <= 1
 0 <= x368 <= 1
 0 <= x369 <= 1
 0 <= x370 <= 1
 0 <= x371 <= 1
 0 <= x372 <= 1
 0 <= x373 <= 1
 0 <= x374 <= 1
 0 <= x375 <= 1
 0 <= x376 <= 1
 0 <= x377 <= 1
 0 <= x378 <= 1
 0 <= x379 <= 1
 0 <= x380 <= 1
 0 <= x381 <= 1
 0 <= x382 <= 1
 0 <= x383 <= 1
 0 <= x384 <= 1
 0 <= x385 <= 1
 0 <= x386 <= 1
 0 <= x387 <= 1
 0 <= x388 <= 1
 0 <= x389 <= 1
 0 <= x390 <= 1
 0 <= x391 <= 1
 0 <= x392 <= 1
 0 <= x393 <= 1
 0 <= x394 <= 1
 0 <= x395 <= 1
 0 <= x396 <= 1
 0 <= x397 <= 1
 0 <= x398 <= 1
 0 <= x399 <= 1
 0 <= x400 <= 1
 0 <= x401 <= 1
 0 <= x402 <= 1
 0 <= x403 <= 1
 0 <= x404 <= 1
 0 <= x405 <= 1
 0 <= x406 <= 1
 0 <= x407 <= 1
 0 <= x408 <= 1
 0 <= x409 <= 1
 0 <= x410 <= 1
 0 <= x411 <= 1
 0 <= x412 <= 1
 0 <= x413 <= 1
 0 <= x414 <= 1
 0 <= x415 <= 1
 0 <= x416 <= 1
 0 <= x417 <= 1
 0 <= x418 <= 1
 0 <= x419 <= 1
 0 <= x420 <= 1
 0 <= x421 <= 1
 0 <= x422 <= 1
 0 <= x423 <= 1
 0 <= x424 <= 1
 0 <= x425 <= 1
 0 <= x426 <= 1
 0 <= x427 <= 1
 0 <= x428 <= 1
 0 <= x429 <= 1
 0 <= x430 <= 1
 0 <= x431 <= 1
 0 <= x432 <= 1
 0 <= x433 <= 1
 0 <= x434 <= 1
 0 <= x435 <= 1
 0 <= x436 <= 1
 0 <= x437 <= 1
 0 <= x438 <= 1
 0 <= x439 <= 1
 0 <= x440 <= 1
 0 <= x441 <= 44
 0 <= x442 <= 44
 0 <= x443 <= 44
 0 <= x444 <= 44
 0 <= x445 <= 44
 0 <= x446 <= 44
 0 <= x447 <= 44
 0 <= x448 <= 44
 0 <= x449 <= 44
 0 <= x450 <= 44
 0 <= x451 <= 44
 0 <= x452 <= 44
 0 <= x453 <= 44
 0 <= x454 <= 44
 0 <= x455 <= 44
 0 <= x456 <= 44
 0 <= x457 <= 44
 0 <= x458 <= 44
 0 <= x459 <= 44
 0 <= x460 <= 44
Binaries
 x1  x2  x3  x4  x5  x6  x7  x8  x9  x10  x11  x12  x13  x14  x15  x16  x17 
 x18  x19  x20  x21  x22  x23  x24  x25  x26  x27  x28  x29  x30  x31  x32 
 x33  x34  x35  x36  x37  x38  x39  x40  x41  x42  x43  x44  x45  x46  x47 
 x48  x49  x50  x51  x52  x53  x54  x55  x56  x57  x58  x59  x60  x61  x62 
 x63  x64  x65  x66  x67  x68  x69  x70  x71  x72  x73  x74  x75  x76  x77 
 x78  x79  x80  x81  x82  x83  x84  x85  x86  x87  x88  x89  x90  x91  x92 
 x93  x94  x95  x96  x97  x98  x99  x100  x101  x102  x103  x104  x105  x106 
 x107  x108  x109  x110  x111  x112  x113  x114  x115  x116  x117  x118  x119 
 x120  x121  x122  x123  x124  x125  x126  x127  x128  x129  x130  x131  x132 
 x133  x134  x135  x136  x137  x138  x139  x140  x141  x142  x143  x144  x145 
 x146  x147  x148  x149  x150  x151  x152  x153  x154  x155  x156  x157  x158 
 x159  x160  x161  x162  x163  x164  x165  x166  x167  x168  x169  x170  x171 
 x172  x173  x174  x175  x176  x177  x178  x179  x180  x181  x182  x183  x184 
 x185  x186  x187  x188  x189  x190  x191  x192  x193  x194  x195  x196  x197 
 x198  x199  x200  x201  x202  x203  x204  x205  x206  x207  x208  x209  x210 
 x211  x212  x213  x214  x215  x216  x217  x218  x219  x220  x221  x222  x223 
 x224  x225  x226  x227  x228  x229  x230  x231  x232  x233  x234  x235  x236 
 x237  x238  x239  x240  x241  x242  x243  x244  x245  x246  x247  x248  x249 
 x250  x251  x252  x253  x254  x255  x256  x257  x258  x259  x260  x261  x262 
 x263  x264  x265  x266  x267  x268  x269  x270  x271  x272  x273  x274  x275 
 x276  x277  x278  x279  x280  x281  x282  x283  x284  x285  x286  x287  x288 
 x289  x290  x291  x292  x293  x294  x295  x296  x297  x298  x299  x300  x301 
 x302  x303  x304  x305  x306  x307  x308  x309  x310  x311  x312  x313  x314 
 x315  x316  x317  x318  x319  x320  x321  x322  x323  x324  x325  x326  x327 
 x328  x329  x330  x331  x332  x333  x334  x335  x336  x337  x338  x339  x340 
 x341  x342  x343  x344  x345  x346  x347  x348  x349  x350  x351  x352  x353 
 x354  x355  x356  x357  x358  x359  x360  x361  x362  x363  x364  x365  x366 
 x367  x368  x369  x370  x371  x372  x373  x374  x375  x376  x377  x378  x379 
 x380  x381  x382  x383  x384  x385  x386  x387  x388  x389  x390  x391  x392 
 x393  x394  x395  x396  x397  x398  x399  x400  x401  x402  x403  x404  x405 
 x406  x407  x408  x409  x410  x411  x412  x413  x414  x415  x416  x417  x418 
 x419  x420  x421  x422  x423  x424  x425  x426  x427  x428  x429  x430  x431 
 x432  x433  x434  x435  x436  x437  x438  x439  x440 
End
